solution status: time limit reached
objective value:                         102604.70458
y#1                                                 1 	(obj:5700)
y#2                                                 1 	(obj:5700)
y#3                                                 1 	(obj:5700)
y#6                                                 1 	(obj:5700)
y#7                                                 1 	(obj:5700)
y#9                                                 1 	(obj:5700)
y#10                                                1 	(obj:5700)
y#15                                                1 	(obj:5700)
y#16                                                1 	(obj:5700)
y#18                                                1 	(obj:5700)
y#20                                                1 	(obj:5700)
y#21                                                1 	(obj:5700)
y#22                                                1 	(obj:5700)
y#24                                                1 	(obj:5700)
y#25                                                1 	(obj:5700)
y#26                                                1 	(obj:5700)
y#27                                                1 	(obj:5700)
y#30                                                1 	(obj:5700)
x#1#6                                               1 	(obj:0.01666)
x#2#30                                              1 	(obj:0.02363)
x#3#7                                               1 	(obj:0.00697)
x#4#24                                              1 	(obj:0.00969)
x#5#2                                               1 	(obj:0.03553)
x#6#27                                              1 	(obj:0.02686)
x#7#2                                               1 	(obj:0.01054)
x#8#22                                              1 	(obj:0.00816)
x#9#9                                               1 	(obj:0.01666)
x#10#16                                             1 	(obj:0.05355)
x#11#1                                              1 	(obj:0.02312)
x#12#9                                              1 	(obj:0.01105)
x#13#6                                              1 	(obj:0.0051)
x#14#21                                             1 	(obj:0.02975)
x#15#6                                              1 	(obj:0.0085)
x#16#16                                             1 	(obj:0.02261)
x#17#18                                             1 	(obj:0.02992)
x#18#24                                             1 	(obj:0.01088)
x#19#16                                             1 	(obj:0.02193)
x#20#30                                             1 	(obj:0.01377)
x#21#3                                              1 	(obj:0.03315)
x#22#1                                              1 	(obj:0.02652)
x#23#26                                             1 	(obj:0.02176)
x#24#9                                              1 	(obj:0.0221)
x#25#1                                              1 	(obj:0.01581)
x#26#26                                             1 	(obj:0.01836)
x#27#7                                              1 	(obj:0.03128)
x#28#6                                              1 	(obj:0.01938)
x#29#9                                              1 	(obj:0.03434)
x#30#22                                             1 	(obj:0.03026)
x#31#10                                             1 	(obj:0.06426)
x#32#25                                             1 	(obj:0.00867)
x#33#10                                             1 	(obj:0.07582)
x#34#1                                              1 	(obj:0.00493)
x#35#22                                             1 	(obj:0.01836)
x#36#26                                             1 	(obj:0.03026)
x#37#2                                              1 	(obj:0.02448)
x#38#15                                             1 	(obj:0.06443)
x#39#22                                             1 	(obj:0.02482)
x#40#26                                             1 	(obj:0.02822)
x#41#24                                             1 	(obj:0.00748)
x#42#7                                              1 	(obj:0.01411)
x#43#30                                             1 	(obj:0.02754)
x#44#25                                             1 	(obj:0.0119)
x#45#27                                             1 	(obj:0.02941)
x#46#15                                             1 	(obj:0.034)
x#47#27                                             1 	(obj:0.01054)
x#48#7                                              1 	(obj:0.01802)
x#49#1                                              1 	(obj:0.01224)
x#50#27                                             1 	(obj:0.01836)
x#51#7                                              1 	(obj:0.00901)
x#52#15                                             1 	(obj:0.02516)
x#53#18                                             1 	(obj:0.04301)
x#54#24                                             1 	(obj:0.01394)
x#55#1                                              1 	(obj:0.00459)
x#56#2                                              1 	(obj:0.03145)
x#57#9                                              1 	(obj:0.01955)
x#58#3                                              1 	(obj:0.01785)
x#59#7                                              1 	(obj:0.03434)
x#60#18                                             1 	(obj:0.00918)
x#61#26                                             1 	(obj:0.00085)
x#62#9                                              1 	(obj:0.02159)
x#63#10                                             1 	(obj:0.02346)
x#64#20                                             1 	(obj:0.00731)
x#65#30                                             1 	(obj:0.00357)
x#66#26                                             1 	(obj:0.02431)
x#67#1                                              1 	(obj:0.0051)
x#68#6                                              1 	(obj:0.03536)
x#69#3                                              1 	(obj:0.07021)
x#70#27                                             1 	(obj:0.02771)
x#71#22                                             1 	(obj:0.00884)
x#72#16                                             1 	(obj:0.0391)
x#73#20                                             1 	(obj:0.03179)
x#74#24                                             1 	(obj:0.0153)
x#75#22                                             1 	(obj:0.00595)
x#76#15                                             1 	(obj:0.01258)
x#77#27                                             1 	(obj:0.00459)
x#78#24                                             1 	(obj:0.00425)
x#79#25                                             1 	(obj:0.02312)
x#80#16                                             1 	(obj:0.00867)
x#81#16                                             1 	(obj:0.02584)
x#82#18                                             1 	(obj:0.0493)
x#83#6                                              1 	(obj:0.02159)
x#84#30                                             1 	(obj:0.01071)
x#85#3                                              1 	(obj:0.02108)
x#86#21                                             1 	(obj:0.01479)
x#87#30                                             1 	(obj:0.00425)
x#88#16                                             1 	(obj:0.00969)
x#89#18                                             1 	(obj:0.04216)
x#90#9                                              1 	(obj:0.07106)
x#91#18                                             1 	(obj:0.02431)
x#92#25                                             1 	(obj:0.0289)
x#93#2                                              1 	(obj:0.0272)
x#94#3                                              1 	(obj:0.02176)
x#95#10                                             1 	(obj:0.01666)
x#96#20                                             1 	(obj:0.03621)
x#97#3                                              1 	(obj:0.05372)
x#98#26                                             1 	(obj:0.0323)
x#99#25                                             1 	(obj:0.02125)
x#100#3                                             1 	(obj:0.02924)
x#101#3                                             1 	(obj:0.03485)
x#102#21                                            1 	(obj:0.02108)
x#103#9                                             1 	(obj:0.05763)
x#104#26                                            1 	(obj:0.017)
x#105#2                                             1 	(obj:0.01819)
x#106#15                                            1 	(obj:0.01989)
x#107#7                                             1 	(obj:0.00187)
x#108#18                                            1 	(obj:0.03774)
x#109#20                                            1 	(obj:0.01955)
x#110#3                                             1 	(obj:0.02227)
x#111#16                                            1 	(obj:0.02091)
x#112#6                                             1 	(obj:0.02618)
x#113#10                                            1 	(obj:0.05287)
x#114#27                                            1 	(obj:0.01309)
x#115#6                                             1 	(obj:0.02567)
x#116#22                                            1 	(obj:0.01309)
x#117#22                                            1 	(obj:0.01054)
x#118#21                                            1 	(obj:0.03043)
x#119#26                                            1 	(obj:0.01003)
x#120#26                                            1 	(obj:0.03009)
x#121#6                                             1 	(obj:0.02788)
x#122#24                                            1 	(obj:0.02278)
x#123#9                                             1 	(obj:0.03111)
x#124#1                                             1 	(obj:0.0221)
x#125#18                                            1 	(obj:0.01734)
x#126#20                                            1 	(obj:0.00918)
x#127#27                                            1 	(obj:0.00867)
x#128#2                                             1 	(obj:0.02669)
x#129#24                                            1 	(obj:0.01751)
x#130#10                                            1 	(obj:0.02363)
x#131#10                                            1 	(obj:0.04964)
x#132#22                                            1 	(obj:0.02958)
x#133#2                                             1 	(obj:0.0289)
x#134#1                                             1 	(obj:0.05576)
x#135#2                                             1 	(obj:0.01105)
x#136#10                                            1 	(obj:0.05508)
x#137#7                                             1 	(obj:0.00085)
x#138#10                                            1 	(obj:0.00136)
x#139#27                                            1 	(obj:0.04675)
x#140#3                                             1 	(obj:0.02465)
x#141#10                                            1 	(obj:0.05899)
x#142#21                                            1 	(obj:0.02329)
x#143#15                                            1 	(obj:0.02125)
x#144#21                                            1 	(obj:0.0085)
x#145#25                                            1 	(obj:0.02941)
x#146#24                                            1 	(obj:0.01496)
x#147#9                                             1 	(obj:0.02975)
x#148#22                                            1 	(obj:0.01683)
x#149#6                                             1 	(obj:0.03077)
x#150#15                                            1 	(obj:0.01462)
x#151#30                                            1 	(obj:0.01938)
x#152#27                                            1 	(obj:0.00612)
x#153#30                                            1 	(obj:0.01972)
x#154#25                                            1 	(obj:0.02108)
x#155#3                                             1 	(obj:0.06341)
x#156#27                                            1 	(obj:0.00884)
x#157#10                                            1 	(obj:0.01054)
x#158#18                                            1 	(obj:0.02856)
x#159#18                                            1 	(obj:0.01734)
x#160#15                                            1 	(obj:0.05304)
x#161#16                                            1 	(obj:0.01598)
x#162#21                                            1 	(obj:0.01853)
x#163#30                                            1 	(obj:0.0255)
x#164#9                                             1 	(obj:0.03026)
x#165#1                                             1 	(obj:0.01734)
x#166#22                                            1 	(obj:0.0153)
x#167#2                                             1 	(obj:0.02924)
x#168#26                                            1 	(obj:0.01224)
x#169#24                                            1 	(obj:0.00493)
x#170#16                                            1 	(obj:0.0187)
x#171#20                                            1 	(obj:0.00816)
x#172#15                                            1 	(obj:0.03859)
x#173#2                                             1 	(obj:0.03332)
x#174#18                                            1 	(obj:0.02227)
x#175#26                                            1 	(obj:0.00629)
x#176#16                                            1 	(obj:0.02839)
x#177#15                                            1 	(obj:0.05253)
x#178#20                                            1 	(obj:0.03774)
x#179#20                                            1 	(obj:0.06749)
x#180#20                                            1 	(obj:0.0187)
x#181#16                                            1 	(obj:0.02839)
x#182#27                                            1 	(obj:0.04998)
x#183#25                                            1 	(obj:0.02006)
x#184#30                                            1 	(obj:0.00357)
x#185#30                                            1 	(obj:0.02652)
x#186#7                                             1 	(obj:0.01904)
x#187#20                                            1 	(obj:0.01309)
x#188#6                                             1 	(obj:0.00238)
x#189#25                                            1 	(obj:0.01615)
x#190#21                                            1 	(obj:0.01598)
x#191#2                                             1 	(obj:0.0323)
x#192#25                                            1 	(obj:0.01547)
x#193#20                                            1 	(obj:0.02414)
x#194#7                                             1 	(obj:0.00782)
x#195#22                                            1 	(obj:0.01156)
x#196#15                                            1 	(obj:0.02091)
x#197#21                                            1 	(obj:0.02176)
x#198#21                                            1 	(obj:0.02805)
x#199#24                                            1 	(obj:0.02686)
x#200#7                                             1 	(obj:0.01972)
